0 7931368
3 7905203
4 7887227
6 7864656
10 7860590
11 7850762
12 7846472
13 7785907
15 7753823
17 7748768
23 7691739
27 7689775
30 7663747
40 7653661
42 7614622
45 7612991
46 7577528
48 7397144
51 7396607
53 7379174
54 7379153
57 7367817
58 7364033
62 7348508
76 7343964
84 7341361
88 7335992
91 7312371
96 7305416
98 7294503
104 7287015
105 7286980
108 7285299
111 7281888
117 7281454
118 7281363
119 7274174
120 7252126
128 7247238
148 7246461
151 7242906
152 7240163
160 7220205
167 7218805
178 7217454
196 7215978
237 7215549
239 7209270
240 7208948
244 7199120
258 7198859
336 7195358
339 7194952
346 7194500
403 7193891
411 7193163
417 7193156
446 7192883
447 7192057
459 7191791
508 7190088
516 7189941
536 7168439
602 7166187
676 7166110
711 7163309
713 7163243
726 7163223
777 7163195
779 7158860
865 7147069
891 7146324
935 7144875
949 7144832
977 7144728
1013 7144252
1090 7143937
1096 7143496
1173 7143475
